p cep 121 864
1 10
1 13
1 34
1 35
1 36
1 43
1 49
1 67
1 72
1 73
1 74
1 78
1 82
1 85
1 89
1 93
1 95
1 109
1 114
1 119
1 120
2 4
2 12
2 16
2 19
2 26
2 47
2 52
2 53
2 61
2 63
2 65
2 81
2 83
2 88
2 91
2 100
2 102
2 105
2 108
2 118
3 32
4 12
4 16
4 19
4 47
4 52
4 61
4 63
4 65
4 81
4 83
4 88
4 91
4 100
4 105
4 108
4 118
5 18
5 20
5 22
5 27
5 31
5 60
5 68
5 92
6 21
6 59
6 98
7 8
7 99
8 99
9 18
9 22
9 27
9 31
9 68
9 96
10 13
10 21
10 24
10 25
10 32
10 33
10 34
10 35
10 36
10 37
10 43
10 49
10 50
10 56
10 59
10 64
10 67
10 68
10 71
10 72
10 73
10 74
10 75
10 78
10 82
10 85
10 86
10 89
10 93
10 95
10 98
10 109
10 110
10 114
10 119
10 120
11 41
11 66
11 77
11 90
11 103
11 110
12 16
12 19
12 47
12 52
12 61
12 63
12 81
12 88
12 91
12 100
12 105
12 108
12 118
13 14
13 21
13 23
13 24
13 25
13 32
13 33
13 34
13 35
13 36
13 43
13 48
13 49
13 50
13 64
13 67
13 70
13 71
13 72
13 73
13 74
13 75
13 78
13 82
13 85
13 86
13 89
13 93
13 95
13 107
13 109
13 114
13 119
13 120
13 121
14 78
14 82
14 86
14 95
14 114
14 120
15 23
15 25
15 39
15 44
15 106
15 109
15 114
15 120
16 19
16 26
16 47
16 52
16 61
16 63
16 65
16 81
16 83
16 88
16 91
16 100
16 102
16 105
16 108
16 118
17 113
18 22
18 27
18 31
18 57
18 68
18 96
19 47
19 52
19 61
19 63
19 65
19 81
19 83
19 88
19 91
19 100
19 105
19 108
19 118
20 22
20 31
20 60
20 92
21 25
21 32
21 34
21 36
21 43
21 49
21 59
21 72
21 78
21 82
21 93
21 95
21 98
21 114
21 119
22 27
22 31
22 60
22 68
22 92
22 96
23 24
23 25
23 35
23 36
23 39
23 43
23 44
23 49
23 50
23 67
23 72
23 73
23 74
23 78
23 82
23 95
23 106
23 109
23 114
23 119
23 120
24 25
24 32
24 33
24 34
24 35
24 36
24 43
24 49
24 50
24 64
24 67
24 71
24 72
24 73
24 74
24 75
24 78
24 80
24 82
24 85
24 86
24 93
24 95
24 109
24 114
24 119
24 120
25 32
25 34
25 35
25 36
25 39
25 43
25 44
25 49
25 50
25 67
25 71
25 72
25 73
25 74
25 75
25 78
25 82
25 86
25 93
25 95
25 106
25 109
25 114
25 120
26 47
26 81
26 88
26 100
26 102
26 105
26 108
26 118
27 31
27 57
27 68
27 96
28 46
28 55
28 58
28 115
29 33
30 62
30 69
30 104
31 32
31 68
31 86
31 96
32 33
32 34
32 35
32 36
32 43
32 48
32 49
32 50
32 56
32 64
32 67
32 70
32 71
32 72
32 73
32 74
32 75
32 78
32 82
32 85
32 86
32 93
32 95
32 96
32 109
32 114
32 119
32 120
32 121
33 34
33 35
33 36
33 43
33 49
33 50
33 67
33 72
33 73
33 74
33 75
33 78
33 82
33 86
33 93
33 109
33 114
33 119
33 120
34 35
34 36
34 43
34 49
34 50
34 56
34 64
34 67
34 68
34 71
34 72
34 73
34 74
34 75
34 78
34 82
34 85
34 86
34 89
34 93
34 94
34 95
34 109
34 114
34 119
34 120
35 36
35 43
35 49
35 50
35 59
35 64
35 67
35 71
35 72
35 73
35 74
35 75
35 78
35 80
35 82
35 85
35 86
35 89
35 93
35 95
35 98
35 107
35 109
35 114
35 119
35 120
36 43
36 48
36 49
36 50
36 56
36 59
36 64
36 67
36 71
36 72
36 73
36 74
36 75
36 78
36 82
36 85
36 86
36 89
36 90
36 93
36 95
36 98
36 107
36 109
36 114
36 119
36 120
36 121
37 45
37 51
37 87
37 94
38 111
39 109
39 114
40 54
41 66
41 77
41 90
41 103
41 110
42 76
42 97
42 116
43 49
43 50
43 56
43 59
43 64
43 67
43 68
43 71
43 72
43 73
43 74
43 75
43 78
43 82
43 85
43 86
43 89
43 93
43 94
43 95
43 98
43 109
43 114
43 119
43 120
44 106
44 109
44 114
45 51
45 87
45 94
46 55
46 58
46 115
47 52
47 53
47 61
47 63
47 65
47 81
47 83
47 88
47 91
47 100
47 102
47 105
47 108
47 118
48 56
48 75
48 78
48 85
48 86
48 93
48 95
49 50
49 56
49 59
49 64
49 67
49 71
49 72
49 73
49 74
49 75
49 78
49 82
49 85
49 86
49 89
49 93
49 95
49 98
49 107
49 109
49 114
49 119
49 120
50 56
50 59
50 64
50 67
50 71
50 72
50 73
50 74
50 75
50 78
50 80
50 82
50 85
50 86
50 93
50 95
50 98
50 109
50 114
50 119
50 120
51 84
51 87
51 94
52 61
52 63
52 65
52 81
52 83
52 88
52 91
52 100
52 105
52 108
52 118
53 81
53 88
53 100
55 58
55 115
56 75
56 85
56 86
56 93
56 95
56 119
57 68
57 96
58 115
59 93
59 98
59 119
60 92
61 63
61 65
61 81
61 83
61 88
61 91
61 100
61 105
61 108
61 118
62 69
62 104
63 65
63 81
63 83
63 88
63 91
63 100
63 102
63 105
63 118
64 67
64 71
64 72
64 73
64 74
64 78
64 82
64 85
64 93
64 95
64 107
64 109
64 114
64 119
64 120
65 81
65 83
65 88
65 91
65 100
65 105
65 108
66 77
66 90
66 110
67 71
67 72
67 73
67 74
67 75
67 78
67 82
67 85
67 86
67 89
67 93
67 95
67 107
67 109
67 114
67 119
67 120
68 72
68 74
68 96
69 104
70 75
70 78
70 86
70 114
70 119
70 121
71 72
71 73
71 74
71 75
71 78
71 82
71 85
71 86
71 93
71 95
71 114
71 119
71 120
72 73
72 74
72 75
72 78
72 82
72 85
72 86
72 89
72 93
72 95
72 107
72 109
72 114
72 119
72 120
73 74
73 75
73 78
73 82
73 85
73 86
73 89
73 93
73 95
73 107
73 109
73 114
73 119
73 120
74 75
74 78
74 82
74 85
74 86
74 89
74 93
74 95
74 109
74 114
74 119
74 120
75 78
75 82
75 85
75 86
75 93
75 95
75 109
75 114
75 119
75 120
75 121
76 116
77 79
77 90
77 103
77 110
78 82
78 85
78 86
78 89
78 93
78 95
78 107
78 109
78 114
78 119
78 120
78 121
79 110
79 117
80 86
81 83
81 88
81 91
81 100
81 102
81 105
81 108
81 118
82 85
82 86
82 89
82 93
82 95
82 107
82 109
82 114
82 119
82 120
83 88
83 91
83 100
83 105
83 118
85 86
85 89
85 93
85 95
85 109
85 114
85 119
85 120
86 93
86 95
86 109
86 114
86 119
86 120
86 121
87 94
88 91
88 100
88 102
88 105
88 108
88 118
89 93
89 95
89 109
89 114
89 119
89 120
90 103
90 110
90 120
91 100
91 105
91 108
91 118
93 95
93 98
93 109
93 114
93 119
93 120
95 107
95 109
95 114
95 119
95 120
98 119
100 102
100 105
100 108
100 118
102 105
102 108
102 118
103 110
105 108
105 111
105 118
106 109
106 114
107 119
108 118
109 114
109 119
109 120
114 119
114 120
119 120
119 121
